p cnf 38 75
e 3 4 12 13 21 22 30 31 0
r 0.500000 5 0
r 0.670000 6 0
r 0.250000 7 0
r 0.750000 8 0
r 0.500000 9 0
r 0.500000 14 0
r 0.670000 15 0
r 0.250000 16 0
r 0.750000 17 0
r 0.500000 18 0
r 0.500000 23 0
r 0.670000 24 0
r 0.250000 25 0
r 0.750000 26 0
r 0.500000 27 0
r 0.500000 32 0
r 0.670000 33 0
r 0.250000 34 0
r 0.750000 35 0
r 0.500000 36 0
e 1 2 10 11 19 20 28 29 37 38 0
-1 0
-2 0
38 0
3 4 0
-3 -4 0
-3 -1 10 0
-3 1 -5 10 0
-3 1 5 -10 0
-4 -1 -2 -8 10 0
-4 -1 -2 8 -10 0
-4 -1 2 -11 10 0
-4 -1 2 11 -9 10 0
-4 -1 2 11 9 -10 0
-4 1 -10 0
-3 -2 11 0
-3 2 -11 0
-4 -2 11 0
-4 2 -1 -6 11 0
-4 2 -1 6 -11 0
-4 2 1 -7 11 0
-4 2 1 7 -11 0
12 13 0
-12 -13 0
-12 -10 19 0
-12 10 -14 19 0
-12 10 14 -19 0
-13 -10 -11 -17 19 0
-13 -10 -11 17 -19 0
-13 -10 11 -20 19 0
-13 -10 11 20 -18 19 0
-13 -10 11 20 18 -19 0
-13 10 -19 0
-12 -11 20 0
-12 11 -20 0
-13 -11 20 0
-13 11 -10 -15 20 0
-13 11 -10 15 -20 0
-13 11 10 -16 20 0
-13 11 10 16 -20 0
21 22 0
-21 -22 0
-21 -19 28 0
-21 19 -23 28 0
-21 19 23 -28 0
-22 -19 -20 -26 28 0
-22 -19 -20 26 -28 0
-22 -19 20 -29 28 0
-22 -19 20 29 -27 28 0
-22 -19 20 29 27 -28 0
-22 19 -28 0
-21 -20 29 0
-21 20 -29 0
-22 -20 29 0
-22 20 -19 -24 29 0
-22 20 -19 24 -29 0
-22 20 19 -25 29 0
-22 20 19 25 -29 0
30 31 0
-30 -31 0
-30 -28 37 0
-30 28 -32 37 0
-30 28 32 -37 0
-31 -28 -29 -35 37 0
-31 -28 -29 35 -37 0
-31 -28 29 -38 37 0
-31 -28 29 38 -36 37 0
-31 -28 29 38 36 -37 0
-31 28 -37 0
-30 -29 38 0
-30 29 -38 0
-31 -29 38 0
-31 29 -28 -33 38 0
-31 29 -28 33 -38 0
-31 29 28 -34 38 0
-31 29 28 34 -38 0
